Linux optc-04-11 4.15.0-88-generic #88-Ubuntu SMP Tue Feb 11 20:11:34 UTC 2020 x86_64 x86_64 x86_64 GNU/Linux

top - 02:39:29 up 2 days, 13:14,  0 users,  load average: 0,33, 0,76, 0,90
Tasks: 466 gesamt,   1 laufend, 235 schlafend,   0 gestoppt,   0 Zombie
%CPU(s): 16,9 be,  3,9 sy,  0,0 ni, 79,2 un,  0,0 wa,  0,0 hi,  0,0 si,  0,0 st
KiB Spch : 65916192 gesamt, 60498008 frei,   721796 belegt,  4696388 Puff/Cache
KiB Swap:  8388604 gesamt,  8388604 frei,        0 belegt. 64608344 verfü Spch 

  PID USER      PR  NI    VIRT    RES    SHR S  %CPU %MEM     ZEIT+ BEFEHL
13100 bzfhende  20   0   52808   4292   3380 R  11,5  0,0   0:00.04 top
    1 root      20   0  233648   9296   6760 S   0,0  0,0   0:17.10 systemd
    2 root      20   0       0      0      0 S   0,0  0,0   0:00.25 kthreadd
    4 root       0 -20       0      0      0 I   0,0  0,0   0:00.00 kworker/0:+
    5 root      20   0       0      0      0 I   0,0  0,0   0:42.08 kworker/u9+
    7 root       0 -20       0      0      0 I   0,0  0,0   0:00.00 mm_percpu_+
    8 root      20   0       0      0      0 S   0,0  0,0   0:00.39 ksoftirqd/0
    9 root      20   0       0      0      0 I   0,0  0,0   0:43.38 rcu_sched

hard time limit: 00-04:10:00
hard mem limit: 38600

SLURM jobID: 6405043

@01 /nfs/OPTI/bzfhende/instances//./miplib2010_opm2/instances/opm2-z11-s7.mps.gz ===========
-----------------------------
So 8. Mär 02:39:29 CET 2020
-----------------------------
@03 1583631569
@05 7200
SCIP version 7.0.0 [precision: 8 byte] [memory: block] [mode: optimized] [LP solver: CPLEX 12.10.0.0] [GitHash: 297532de76]
Copyright (C) 2002-2020 Konrad-Zuse-Zentrum fuer Informationstechnik Berlin (ZIB)

External codes: 
  Readline 7.0         GNU library for command line editing (gnu.org/s/readline)
  CPLEX 12.10.0.0      Linear Programming Solver developed by IBM (www.cplex.com)
  CppAD 20180000.0     Algorithmic Differentiation of C++ algorithms developed by B. Bell (www.coin-or.org/CppAD)
  ZLIB 1.2.11          General purpose compression library by J. Gailly and M. Adler (zlib.net)
  GMP 6.1.2            GNU Multiple Precision Arithmetic Library developed by T. Granlund (gmplib.org)
  bliss 0.73p          Computing Graph Automorphism Groups by T. Junttila and P. Kaski (http://www.tcs.hut.fi/Software/bliss/)

user parameter file <scip.set> not found - using default parameters

SCIP> 
SCIP> set load /nfs/OPTI/bzfhende/scip-opti/check/../settings/periodic_report.sett
loaded parameter file </nfs/OPTI/bzfhende/scip-opti/check/../settings/periodic_report.set>
SCIP> set limits time 7200
limits/time = 7200
SCIP> set limits nodes 2100000000
limits/nodes = 2100000000
SCIP> set limits memory 35000
limits/memory = 35000
SCIP> set lp advanced threads 1
lp/threads = 1
SCIP> set timing clocktype 1
timing/clocktype = 1
SCIP> set display freq 10000
display/freq = 10000
SCIP> set memory savefac 1.0
memory/savefac = 1
SCIP> set save /nfs/OPTI/bzfhende/scip-opti/check/treesize.prediction.opm2/bzfhennde.instancegroups_opm2.24_opm2-z11-s7.scip.M620v2.periodic_report.set
saved parameter file </nfs/OPTI/bzfhende/scip-opti/check/treesize.prediction.opm2/bzfhende.instancegroups_opm2.24_opm2-z11-s7.scip.M620v2.periodic_report.set>
SCIP> read /nfs/OPTI/bzfhende/instances//./miplib2010_opm2/instances/opm2-z11-s7..mps.gz

read problem </nfs/OPTI/bzfhende/instances//./miplib2010_opm2/instances/opm2-z11-s7.mps.gz>
============

original problem has 8019 variables (8019 bin, 0 int, 0 impl, 0 cont) and 223082 constraints
SCIP> display parameters

number of parameters = 2603
non-default parameter settings:
display/freq = 10000
limits/time = 7200
limits/nodes = 2100000000
limits/memory = 35000
lp/threads = 1
memory/savefac = 1
timing/clocktype = 1
estimation/restarts/restartpolicy = n
estimation/restarts/restartlimit = 0
estimation/reportfreq = 100
estimation/treeprofile/enabled = TRUE

SCIP> optimize

feasible solution found by trivial heuristic after 0.2 seconds, objective value 0.000000e+00
presolving:
(round 1, fast)       327 del vars, 15687 del conss, 0 add conss, 0 chg bounds, 0 chg sides, 0 chg coeffs, 0 upgd conss, 0 impls, 207359 clqs
(round 2, fast)       336 del vars, 16272 del conss, 0 add conss, 0 chg bounds, 0 chg sides, 0 chg coeffs, 0 upgd conss, 0 impls, 206786 clqs
(round 3, exhaustive) 336 del vars, 16288 del conss, 0 add conss, 0 chg bounds, 0 chg sides, 0 chg coeffs, 206794 upgd conss, 0 impls, 206786 clqs
(round 4, fast)       366 del vars, 17000 del conss, 0 add conss, 0 chg bounds, 0 chg sides, 0 chg coeffs, 206794 upgd conss, 0 impls, 205316 clqs
(round 5, fast)       367 del vars, 17807 del conss, 0 add conss, 0 chg bounds, 0 chg sides, 0 chg coeffs, 206794 upgd conss, 0 impls, 205267 clqs
   (35.9s) probing: 1000/7651 (13.1%) - 0 fixings, 0 aggregations, 263400 implications, 0 bound changes
   (36.0s) probing: 1001/7651 (13.1%) - 0 fixings, 0 aggregations, 263682 implications, 0 bound changes
   (36.0s) probing aborted: 1000/1000 successive useless probings
   (39.2s) symmetry computation started: requiring (bin +, int +, cont +), (fixed: bin -, int -, cont -)
   (39.5s) no symmetry present
presolving (6 rounds: 6 fast, 2 medium, 2 exhaustive):
 368 deleted vars, 17856 deleted constraints, 0 added constraints, 0 tightened bounds, 0 added holes, 0 changed sides, 0 changed coefficients
 0 implications, 468900 cliques
presolved problem has 7651 variables (7651 bin, 0 int, 0 impl, 0 cont) and 205226 constraints
      8 constraints of type <knapsack>
 205218 constraints of type <setppc>
transformed objective value is always integral (scale: 1)
Presolving Time: 39.37
transformed 1/1 original solutions to the transformed problem space

 time | node  | left  |LP iter|LP it/n|mem/heur|mdpt |vars |cons |rows |cuts |sepa|confs|strbr|  dualbound   | primalbound  |  gap   | compl. 
p40.8s|     1 |     0 |     0 |     - | vbounds|   0 |7651 | 205k| 205k|   0 |  0 |  12 |   0 |-6.580740e+05 |-2.744100e+04 |2298.14%| unknown
 76.0s|     1 |     0 | 37757 |     - |  1432M |   0 |7651 | 205k| 205k|   0 |  0 |  17 |   0 |-6.491102e+04 |-2.744100e+04 | 136.55%| unknown
r77.8s|     1 |     0 | 37757 |     - |shifting|   0 |7651 | 205k| 205k|   0 |  0 |  18 |   0 |-6.491102e+04 |-2.926100e+04 | 121.83%| unknown
i77.8s|     1 |     0 | 37757 |     - |  oneopt|   0 |7651 | 205k| 205k|   0 |  0 |  18 |   0 |-6.491102e+04 |-2.942600e+04 | 120.59%| unknown
d 638s|     1 |     0 | 96087 |     - |farkasdi|   0 |7651 | 205k| 205k|   0 |  2 |  18 |   0 |-6.491102e+04 |-4.164100e+04 |  55.88%| unknown
 1241s|     1 |     0 |134563 |     - |  1500M |   0 |7651 | 205k| 205k|   0 |  2 |  26 |   0 |-6.491102e+04 |-4.164100e+04 |  55.88%| unknown
 1549s|     1 |     2 |134563 |     - |  1510M |   0 |7651 | 205k| 205k|   0 |  4 |  27 |  32 |-6.383894e+04 |-4.164100e+04 |  53.31%| unknown
d2975s|    15 |    16 |161658 |8850.1 |pscostdi|  13 |7651 | 205k| 205k|   0 |  1 |  27 | 180 |-6.228461e+04 |-4.182400e+04 |  48.92%| unknown
d3777s|    57 |    40 |208785 |3054.1 |adaptive|  29 |7651 | 205k| 205k|   0 |  1 |  27 | 197 |-6.092715e+04 |-4.252600e+04 |  43.27%| unknown
r6357s|   196 |    63 |263199 |1156.1 |ziroundi|  43 |7651 | 205k| 205k|   0 |  2 | 103 | 232 |-6.015047e+04 |-4.253700e+04 |  41.41%| unknown
Report 1
Time Elapsed: 6672.46
Estim. Tree Size   :       2271
Estimation Tree    : 331 nodes (243 visited, 165 inner, 78 leaves, 88 open), weight: 0.0117 completed 0.0731
Estimations        :      estim      value      trend resolution     smooth
  wbe              :      13308          -          -          -          -
  tree-profile     :         -1          -          -          -          -
  gap              :        458    0.72798    0.00180          1       1811
  tree-weight      :       2272    0.01172    0.00093          1       4049
  leaf-frequency   :        486    0.31893   -0.00017          1        483
  ssg              :       2959    0.89140   -0.00064          1       4059
  open-nodes       :        486   88.00000    1.51833          1        483
End of Report 1


SCIP Status        : solving was interrupted [time limit reached]
Solving Time (sec) : 7199.95
Solving Nodes      : 237
Primal Bound       : -4.25370000000000e+04 (31 solutions)
Dual Bound         : -5.84312626730438e+04
Gap                : 37.37 %

SCIP> display statistics

SCIP Status        : solving was interrupted [time limit reached]
Total Time         :    7200.47
  solving          :    7199.95
  presolving       :      39.37 (included in solving)
  reading          :       0.52
  copying          :       0.91 (3 #copies) (minimal 0.29, maximal 0.31, average 0.30)
Original Problem   :
  Problem name     : opm2-z11-s7
  Variables        : 8019 (8019 binary, 0 integer, 0 implicit integer, 0 continuous)
  Constraints      : 223082 initial, 223082 maximal
  Objective        : minimize, 7961 non-zeros (abs.min = 1, abs.max = 526)
Presolved Problem  :
  Problem name     : t_opm2-z11-s7
  Variables        : 7651 (7651 binary, 0 integer, 0 implicit integer, 0 continuous)
  Constraints      : 205226 initial, 205329 maximal
  Objective        : minimize, 7594 non-zeros (abs.min = 1, abs.max = 526)
  Nonzeros         : 471632 constraint, 937802 clique table
Presolvers         :   ExecTime  SetupTime  Calls  FixedVars   AggrVars   ChgTypes  ChgBounds   AddHoles    DelCons    AddCons   ChgSides   ChgCoefs
  boundshift       :       0.00       0.00      0          0          0          0          0          0          0          0          0          0
  convertinttobin  :       0.00       0.00      0          0          0          0          0          0          0          0          0          0
  domcol           :       0.11       0.00      1          0          0          0          0          0          0          0          0          0
  dualagg          :       0.00       0.00      0          0          0          0          0          0          0          0          0          0
  dualcomp         :       0.00       0.00      0          0          0          0          0          0          0          0          0          0
  dualinfer        :       0.00       0.00      0          0          0          0          0          0          0          0          0          0
  dualsparsify     :       3.25       0.00      1          0          0          0          0          0          0          0          0          0
  gateextraction   :       0.00       0.00      0          0          0          0          0          0          0          0          0          0
  implics          :       0.00       0.00      2          0          0          0          0          0          0          0          0          0
  inttobinary      :       0.00       0.00      0          0          0          0          0          0          0          0          0          0
  qpkktref         :       0.00       0.00      0          0          0          0          0          0          0          0          0          0
  redvub           :       0.00       0.00      0          0          0          0          0          0          0          0          0          0
  sparsify         :       0.15       0.00      1          0          0          0          0          0          0          0          0          0
  stuffing         :       0.00       0.00      0          0          0          0          0          0          0          0          0          0
  trivial          :       0.00       0.00      6          0          0          0          0          0          0          0          0          0
  tworowbnd        :       0.14       0.00      1          0          0          0          0          0          0          0          0          0
  dualfix          :       0.00       0.00      6        331          0          0          0          0          0          0          0          0
  genvbounds       :       0.00       0.00      0          0          0          0          0          0          0          0          0          0
  probing          :      30.93       0.00      1          0          0          0          0          0          0          0          0          0
  pseudoobj        :       0.00       0.00      3          0          0          0          0          0          0          0          0          0
  symmetry         :       0.30       0.00      1          0          0          0          0          0          0          0          0          0
  vbounds          :       0.02       0.00      1          0          0          0          0          0          0          0          0          0
  knapsack         :       1.77       0.00      5          0          0          0          0          0          0          0          0          0
  setppc           :       0.70       0.01      5         30          0          0          0          0       1568          0          0          0
  linear           :       1.78       0.06      4          0          7          0          0          0      16288          0          0          0
  logicor          :       0.00       0.00      0          0          0          0          0          0          0          0          0          0
  benders          :       0.00       0.00      0          0          0          0          0          0          0          0          0          0
  components       :       0.06       0.00      1          0          0          0          0          0          0          0          0          0
  root node        :          -          -      -          0          -          -          0          -          -          -          -          -
Constraints        :     Number  MaxNumber  #Separate #Propagate    #EnfoLP    #EnfoRelax  #EnfoPS    #Check   #ResProp    Cutoffs    DomReds       Cuts    Applied      Conss   Children
  benderslp        :          0          0          0          0        172          0          0         41          0          0          0          0          0          0          0
  integral         :          0          0          0          0        172          0          0         41          0          0        155          0          0         63        334
  knapsack         :          8          8          2      30306          0          0          0         36          0         10          0          0          0          0          0
  setppc           :     205218+    205219          2      30274          0          0          0         32      29054          1      23416          0          0          0          0
  logicor          :          0+       102          2        192          0          0          0          0         10          5          0          0          0          0          0
  benders          :          0          0          0          0          0          0          0         33          0          0          0          0          0          0          0
  countsols        :          0          0          0          0          0          0          0         33          0          0          0          0          0          0          0
  components       :          0          0          0          0          0          0          0          0          0          0          0          0          0          0          0
Constraint Timings :  TotalTime  SetupTime   Separate  Propagate     EnfoLP     EnfoPS     EnfoRelax   Check    ResProp    SB-Prop
  benderslp        :       0.00       0.00       0.00       0.00       0.00       0.00       0.00       0.00       0.00       0.00
  integral         :    1668.77       0.00       0.00       0.00    1668.77       0.00       0.00       0.00       0.00       0.00
  knapsack         :      15.35       0.00      13.44       1.80       0.00       0.00       0.00       0.02       0.00       0.09
  setppc           :       9.59       0.01       0.08       8.59       0.00       0.00       0.00       0.20       0.06       0.65
  logicor          :       0.01       0.00       0.00       0.00       0.00       0.00       0.00       0.00       0.00       0.01
  benders          :       0.00       0.00       0.00       0.00       0.00       0.00       0.00       0.00       0.00       0.00
  countsols        :       0.00       0.00       0.00       0.00       0.00       0.00       0.00       0.00       0.00       0.00
  components       :       0.01       0.00       0.00       0.01       0.00       0.00       0.00       0.00       0.00       0.00
Propagators        : #Propagate   #ResProp    Cutoffs    DomReds
  dualfix          :          3          0          0          0
  genvbounds       :          0          0          0          0
  nlobbt           :          0          0          0          0
  obbt             :          0          0          0          0
  probing          :          0          0          0          0
  pseudoobj        :       1676          0          0          0
  redcost          :        364          0          0        903
  rootredcost      :          4          0          0          0
  symmetry         :          0          0          0          0
  vbounds          :      23209          0          0          0
Propagator Timings :  TotalTime  SetupTime   Presolve  Propagate    ResProp    SB-Prop
  dualfix          :       0.00       0.00       0.00       0.00       0.00       0.00
  genvbounds       :       0.04       0.00       0.00       0.04       0.00       0.00
  nlobbt           :       0.00       0.00       0.00       0.00       0.00       0.00
  obbt             :       0.00       0.00       0.00       0.00       0.00       0.00
  probing          :      30.93       0.00      30.93       0.00       0.00       0.00
  pseudoobj        :       0.15       0.00       0.00       0.14       0.00       0.01
  redcost          :       0.02       0.00       0.00       0.02       0.00       0.00
  rootredcost      :       0.03       0.00       0.00       0.03       0.00       0.00
  symmetry         :       0.32       0.00       0.30       0.02       0.00       0.00
  vbounds          :       0.06       0.00       0.02       0.03       0.00       0.01
Conflict Analysis  :       Time      Calls    Success    DomReds  Conflicts   Literals    Reconvs ReconvLits   Dualrays   Nonzeros   LP Iters   (pool size: [10000,10000])
  propagation      :       0.02         14         12          -        196      779.3          0        0.0          -          -          -
  infeasible LP    :       0.00          0          0          -          0        0.0          0        0.0          0        0.0          0
  bound exceed. LP :       3.83         16         15          -        480      768.3          0        0.0          0        0.0        300
  strong branching :       0.00          0          0          -          0        0.0          0        0.0          -          -          0
  pseudo solution  :       0.00          0          0          -          0        0.0          0        0.0          -          -          -
  applied globally :       0.01          -          -          0        113      598.5          -          -          0          -          -
  applied locally  :          -          -          -          0          0        0.0          -          -          0          -          -
Separators         :   ExecTime  SetupTime      Calls    Cutoffs    DomReds       Cuts    Applied      Conss
  cut pool         :       0.00                     0          -          -          0          -          -    (maximal pool size: 0)
  aggregation      :      31.94       0.00          5          0          0          0          0          0
  cgmip            :       0.00       0.00          0          0          0          0          0          0
  clique           :       6.79       0.00          2          0          0          0          0          0
  closecuts        :       0.00       0.00          0          0          0          0          0          0
  cmir             :       0.00       0.00          0          0          0          0          0          0
  convexproj       :       0.00       0.00          0          0          0          0          0          0
  disjunctive      :       0.00       0.00          0          0          0          0          0          0
  eccuts           :       0.00       0.00          0          0          0          0          0          0
  flowcover        :       0.00       0.00          0          0          0          0          0          0
  gauge            :       0.00       0.00          0          0          0          0          0          0
  gomory           :     231.05       0.00          5          0          0          0          0          0
  impliedbounds    :       0.05       0.00          5          0          0          0          0          0
  intobj           :       0.00       0.00          0          0          0          0          0          0
  mcf              :       2.13       0.00          2          0          0          0          0          0
  oddcycle         :       0.00       0.00          0          0          0          0          0          0
  rapidlearning    :       0.02       0.00          0          0          0          0          0          0
  strongcg         :      33.16       0.00          2          0          0          0          0          0
  zerohalf         :      21.27       0.00          5          0          0          0          0          0
Pricers            :   ExecTime  SetupTime      Calls       Vars
  problem variables:       0.00          -          0          0
Branching Rules    :   ExecTime  SetupTime   BranchLP  BranchExt   BranchPS    Cutoffs    DomReds       Cuts      Conss   Children
  allfullstrong    :       0.00       0.00          0          0          0          0          0          0          0          0
  cloud            :       0.00       0.00          0          0          0          0          0          0          0          0
  distribution     :       0.00       0.00          0          0          0          0          0          0          0          0
  fullstrong       :       0.00       0.00          0          0          0          0          0          0          0          0
  inference        :       0.00       0.00          0          0          0          0          0          0          0          0
  leastinf         :       0.00       0.00          0          0          0          0          0          0          0          0
  lookahead        :       0.00       0.00          0          0          0          0          0          0          0          0
  mostinf          :       0.00       0.00          0          0          0          0          0          0          0          0
  multaggr         :       0.00       0.00          0          0          0          0          0          0          0          0
  nodereopt        :       0.00       0.00          0          0          0          0          0          0          0          0
  pscost           :       0.00       0.00          0          0          0          0          0          0          0          0
  random           :       0.00       0.00          0          0          0          0          0          0          0          0
  relpscost        :    1668.77       0.00        172          0          0          0        155          0         63        334
  vanillafullstrong:       0.00       0.00          0          0          0          0          0          0          0          0
Primal Heuristics  :   ExecTime  SetupTime      Calls      Found       Best
  LP solutions     :       0.00          -          -          0          0
  relax solutions  :       0.00          -          -          0          0
  pseudo solutions :       0.00          -          -          0          0
  strong branching :       0.01          -          -          0          0
  actconsdiving    :       0.00       0.00          0          0          0
  adaptivediving   :     119.97       0.00          1          1          1
  alns             :       2.41       0.00          3          0          0
  bound            :       0.00       0.00          0          0          0
  clique           :       0.26       0.00          1          0          0
  coefdiving       :       0.00       0.00          0          0          0
  completesol      :       0.00       0.00          0          0          0
  conflictdiving   :     137.26       0.00          1          0          0
  crossover        :       0.00       0.00          0          0          0
  dins             :       0.00       0.00          0          0          0
  distributiondivin:     107.15       0.00          1          0          0
  dualval          :       0.00       0.00          0          0          0
  farkasdiving     :     493.82       0.00          1          1          1
  feaspump         :     465.38       0.00          1          0          0
  fixandinfer      :       0.00       0.00          0          0          0
  fracdiving       :      79.82       0.00          1          0          0
  gins             :       0.04       0.00          0          0          0
  guideddiving     :       0.00       0.00          0          0          0
  indicator        :       0.00       0.00          0          0          0
  intdiving        :       0.00       0.00          0          0          0
  intshifting      :       0.00       0.00          0          0          0
  linesearchdiving :       0.00       0.00          0          0          0
  localbranching   :       0.00       0.00          0          0          0
  locks            :       0.19       0.00          1          0          0
  lpface           :       0.00       0.00          0          0          0
  mpec             :       0.00       0.00          0          0          0
  multistart       :       0.00       0.00          0          0          0
  mutation         :       0.00       0.00          0          0          0
  nlpdiving        :       0.00       0.00          0          0          0
  objpscostdiving  :     469.14       0.00          1          0          0
  octane           :       0.00       0.00          0          0          0
  ofins            :       0.00       0.00          0          0          0
  oneopt           :       0.13       0.00          6          1          1
  padm             :       0.00       0.00          0          0          0
  proximity        :       0.00       0.00          0          0          0
  pscostdiving     :      85.36       0.00          1          1          1
  randrounding     :       0.14       0.00          6          0          0
  rens             :       0.00       0.00          0          0          0
  reoptsols        :       0.00       0.00          0          0          0
  repair           :       0.00       0.00          0          0          0
  rins             :       0.00       0.00          0          0          0
  rootsoldiving    :       0.00       0.00          0          0          0
  rounding         :      46.20       0.00        139          0          0
  shiftandpropagate:       0.00       0.00          0          0          0
  shifting         :       5.51       0.00         18          6          1
  simplerounding   :       0.04       0.00        248          0          0
  subnlp           :       0.00       0.00          0          0          0
  trivial          :       0.02       0.00          2          1          1
  trivialnegation  :       0.00       0.00          0          0          0
  trustregion      :       0.00       0.00          0          0          0
  trysol           :       0.00       0.00          0          0          0
  twoopt           :       0.00       0.00          0          0          0
  undercover       :       0.00       0.00          0          0          0
  vbounds          :       1.62       0.00          1          1          1
  veclendiving     :       0.21       0.00          1          0          0
  zeroobj          :       0.00       0.00          0          0          0
  zirounding       :       3.08       0.00        166         19          1
  other solutions  :          -          -          -          0          -
Diving (single)    :      Calls      Nodes   LP Iters Backtracks  Conflicts   MinDepth   MaxDepth   AvgDepth  RoundSols  NLeafSols  MinSolDpt  MaxSolDpt  AvgSolDpt
  actconsdiving    :          0          -          -          -          -          -          -          -          -          -          -          -          -
  coefdiving       :          0          -          -          -          -          -          -          -          -          -          -          -          -
  conflictdiving   :          1        157      15338          0         69        158        158      158.0          0          -          -          -          -
  distributiondivin:          1       1314      10206          1         23       1319       1319     1319.0          0          -          -          -          -
  farkasdiving     :          1        527      58330          0          0        528        528      528.0          0          1        528        528      528.0
  fracdiving       :          1        475       8054          1         18        480        480      480.0          0          -          -          -          -
  guideddiving     :          0          -          -          -          -          -          -          -          -          -          -          -          -
  linesearchdiving :          0          -          -          -          -          -          -          -          -          -          -          -          -
  pscostdiving     :          1        366       9297          0          0        380        380      380.0          0          1        380        380      380.0
  veclendiving     :          1          3          7          0         46         56         56       56.0          0          -          -          -          -
Diving (adaptive)  :      Calls      Nodes   LP Iters Backtracks  Conflicts   MinDepth   MaxDepth   AvgDepth  RoundSols  NLeafSols  MinSolDpt  MaxSolDpt  AvgSolDpt
  actconsdiving    :          0          -          -          -          -          -          -          -          -          -          -          -          -
  coefdiving       :          0          -          -          -          -          -          -          -          -          -          -          -          -
  conflictdiving   :          0          -          -          -          -          -          -          -          -          -          -          -          -
  distributiondivin:          0          -          -          -          -          -          -          -          -          -          -          -          -
  farkasdiving     :          0          -          -          -          -          -          -          -          -          -          -          -          -
  fracdiving       :          0          -          -          -          -          -          -          -          -          -          -          -          -
  guideddiving     :          0          -          -          -          -          -          -          -          -          -          -          -          -
  linesearchdiving :          0          -          -          -          -          -          -          -          -          -          -          -          -
  pscostdiving     :          1        381      13201          0          0        390        390      390.0          0          1        390        390      390.0
  veclendiving     :          0          -          -          -          -          -          -          -          -          -          -          -          -
Neighborhoods      :      Calls  SetupTime  SolveTime SolveNodes       Sols       Best       Exp3  EpsGreedy        UCB TgtFixRate  Opt  Inf Node Stal  Sol  Usr Othr Actv
  rens             :          0       0.00       0.00          0          0          0    0.00000   -1.00000    1.00000      0.900    0    0    0    0    0    0    0    1
  rins             :          0       0.00       0.00          0          0          0    0.00000   -1.00000    1.00000      0.900    0    0    0    0    0    0    0    1
  mutation         :          0       0.00       0.00          0          0          0    0.00000   -1.00000    1.00000      0.900    0    0    0    0    0    0    0    1
  localbranching   :          1       0.45       0.30          0          0          0    0.00000   -1.00000    1.00000      0.700    0    1    0    0    0    0    0    1
  crossover        :          0       0.00       0.00          0          0          0    0.00000   -1.00000    1.00000      0.900    0    0    0    0    0    0    0    1
  proximity        :          1       0.43       0.31          0          0          0    0.00000   -1.00000    1.00000      0.700    0    1    0    0    0    0    0    1
  zeroobjective    :          0       0.00       0.00          0          0          0    0.00000   -1.00000    1.00000      0.900    0    0    0    0    0    0    0    1
  dins             :          1       0.46       0.34          0          0          0    0.00000   -1.00000    1.00000      0.700    0    1    0    0    0    0    0    1
  trustregion      :          0       0.00       0.00          0          0          0    0.00000   -1.00000    1.00000      0.900    0    0    0    0    0    0    0    0
LP                 :       Time      Calls Iterations  Iter/call   Iter/sec  Time-0-It Calls-0-It    ItLimit
  primal LP        :       0.00          0          0       0.00          -       0.00          0
  dual LP          :    3128.80        364     148326     615.46      47.41       1.66        123
  lex dual LP      :       0.00          0          0       0.00          -
  barrier LP       :       0.00          0          0       0.00          -       0.00          0
  resolve instable :       0.00          0          0       0.00          -
  diving/probing LP:    1947.41        861     152470     177.08      78.29
  strong branching :    1659.45        252     208250     826.39     125.49          -          -        343
    (at root node) :          -         32      30323     947.59          -
  conflict analysis:       3.48         30        300      10.00      86.21
B&B Tree           :
  number of runs   :          1
  nodes            :        237 (167 internal, 70 leaves)
  feasible leaves  :          0
  infeas. leaves   :          1
  objective leaves :         69
  nodes (total)    :        237 (167 internal, 70 leaves)
  nodes left       :         90
  max depth        :         54
  max depth (total):         54
  backtracks       :         38 (16.0%)
  early backtracks :          0 (0.0%)
  nodes exc. ref.  :          0 (0.0%)
  delayed cutoffs  :          0
  repropagations   :          0 (0 domain reductions, 0 cutoffs)
  avg switch length:       2.95
  switching time   :       0.45
Estim. Tree Size   :       2271
Estimation Tree    : 335 nodes (245 visited, 167 inner, 78 leaves, 90 open), weight: 0.0117 completed 0.0731
Estimations        :      estim      value      trend resolution     smooth
  wbe              :      13308          -          -          -          -
  tree-profile     :         -1          -          -          -          -
  gap              :        458    0.72798    0.00180          1       1811
  tree-weight      :       2272    0.01172    0.00093          1       4049
  leaf-frequency   :        490    0.31633   -0.00017          1        483
  ssg              :       2959    0.89140   -0.00064          1       4059
  open-nodes       :        490   90.00000    1.51833          1        483
Root Node          :
  First LP value   : -6.49110162785873e+04
  First LP Iters   :      37756 (1103.98 Iter/sec)
  First LP Time    :      34.20
  Final Dual Bound : -6.38389433886895e+04
  Final Root Iters :      37756
  Root LP Estimate : -2.26372185393293e+04
Solution           :
  Solutions found  :         31 (8 improvements)
  First Solution   : +0.00000000000000e+00   (in run 1, after 0 nodes, 0.20 seconds, depth 0, found by <trivial>)
  Gap First Sol.   :   infinite
  Gap Last Sol.    :      41.41 %
  Primal Bound     : -4.25370000000000e+04   (in run 1, after 196 nodes, 6356.53 seconds, depth 43, found by <zirounding>)
  Dual Bound       : -5.84312626730438e+04
  Gap              :      37.37 %
Integrals          :      Total       Avg%
  primal-dual      :  244624.77      33.98
  primal-ref       :          -          - (not evaluated)
  dual-ref         :          -          - (not evaluated)

SCIP> checksol

check best solution
solution is feasible in original problem
Violation          :    absolute    relative
  bounds           : 0.00000e+00 0.00000e+00
  integrality      : 2.77556e-17           -
  LP rows          : 0.00000e+00 0.00000e+00
  constraints      : 0.00000e+00 0.00000e+00

SCIP> write sol /local/tmp/bzfhende-tmpdir/bzfhende.instancegroups_opm2.24_opm2-zz11-s7.scip.M620v2.periodic_report.sol

written solution information to file </local/tmp/bzfhende-tmpdir/bzfhende.instancegroups_opm2.24_opm2-z11-s7.scip.M620v2.periodic_report.sol>

SCIP> quit

Read MPS: 1
MIP has 8019 vars and 223082 constraints
Read SOL: 1
Objective value computed by solver: -42537

Integrality tolerance: 1/10000
Linear tolerance: 1/10000
Objective tolerance: 1/10000

Check SOL: Integrality 1 Constraints 1 Objective 1
Maximum violations: Integrality 0 Constraints 0 Objective 0
@04 1583638783
-----------------------------
So 8. Mär 04:39:43 CET 2020
-----------------------------

=ready=
